
Gurobi 7.5.2 (linux64) logging started Sat Jun 23 18:09:20 2018

Changed value of parameter LogFile to result/ilp/simNo_9-n_100-m_40-s_4-minVAF_0.05-cov_2000-k_2-fn_0.05-fp_0.0001-na_0.15.ILP.gurobiSolverLog
   Prev: gurobi.log  Default: 
Changed value of parameter TimeLimit to 86400.0
   Prev: 1e+100  Min: 0.0  Max: 1e+100  Default: 1e+100
Optimize a model with 1265601 rows, 330440 columns and 3489120 nonzeros
Variable types: 0 continuous, 330440 integer (330440 binary)
Coefficient statistics:
  Matrix range     [3e-03, 3e+00]
  Objective range  [1e-01, 9e+00]
  Bounds range     [1e+00, 1e+00]
  RHS range        [3e-01, 2e+00]
Found heuristic solution: objective -14697.14497
Presolve removed 344403 rows and 215973 columns (presolve time = 6s) ...
Presolve removed 344857 rows and 215973 columns (presolve time = 10s) ...
Presolve removed 344857 rows and 215973 columns (presolve time = 15s) ...
Presolve removed 344857 rows and 215973 columns (presolve time = 21s) ...
Presolve removed 344857 rows and 215973 columns (presolve time = 25s) ...
Presolve removed 344857 rows and 215973 columns (presolve time = 30s) ...
Presolve removed 344857 rows and 215973 columns (presolve time = 38s) ...
Presolve removed 344857 rows and 215973 columns (presolve time = 40s) ...
Presolve removed 344857 rows and 215973 columns
Presolve time: 40.15s
Presolved: 920744 rows, 114467 columns, 2553990 nonzeros
Variable types: 0 continuous, 114467 integer (114467 binary)
Presolved: 114467 rows, 1035211 columns, 2668457 nonzeros

Presolve removed 114467 rows and 1035211 columns

Root simplex log...

Iteration    Objective       Primal Inf.    Dual Inf.      Time
       0    6.2137947e+00   0.000000e+00   9.236200e+04     51s
   10334   -1.5367961e+02   0.000000e+00   2.335750e+04     56s
   12413   -1.7346373e+02   0.000000e+00   0.000000e+00     57s
   12413   -1.7346373e+02   0.000000e+00   0.000000e+00     60s

Root relaxation: objective -1.734637e+02, 12413 iterations, 16.20 seconds
Total elapsed time = 61.12s
Total elapsed time = 80.66s
Total elapsed time = 91.49s
Total elapsed time = 100.84s

    Nodes    |    Current Node    |     Objective Bounds      |     Work
 Expl Unexpl |  Obj  Depth IntInf | Incumbent    BestBd   Gap | It/Node Time

     0     0 -173.46373    0  449 -14697.145 -173.46373  98.8%     -  108s
H    0     0                    -207.9343590 -173.46373  16.6%     -  116s
     0     0 -181.16015    0  382 -207.93436 -181.16015  12.9%     -  133s
     0     0 -185.72861    0  275 -207.93436 -185.72861  10.7%     -  165s
     0     0 -185.72861    0  286 -207.93436 -185.72861  10.7%     -  185s
H    0     0                    -206.7216082 -185.72861  10.2%     -  191s
     0     0 -185.77801    0  188 -206.72161 -185.77801  10.1%     -  226s
     0     0 -187.26789    0  241 -206.72161 -187.26789  9.41%     -  254s
     0     0 -187.26789    0  268 -206.72161 -187.26789  9.41%     -  272s
     0     0 -188.80717    0  317 -206.72161 -188.80717  8.67%     -  356s
     0     0 -188.86772    0  323 -206.72161 -188.86772  8.64%     -  372s
     0     0 -188.86772    0  323 -206.72161 -188.86772  8.64%     -  380s
     0     0 -190.40701    0  325 -206.72161 -190.40701  7.89%     -  393s
     0     0 -190.40701    0  324 -206.72161 -190.40701  7.89%     -  407s
     0     0 -191.93514    0  220 -206.72161 -191.93514  7.15%     -  421s
     0     0 -191.94072    0  328 -206.72161 -191.94072  7.15%     -  435s
     0     0 -191.94072    0  329 -206.72161 -191.94072  7.15%     -  443s
     0     0 -193.48000    0  330 -206.72161 -193.48000  6.41%     -  456s
     0     0 -193.48000    0  328 -206.72161 -193.48000  6.41%     -  468s
     0     0 -193.48186    0  320 -206.72161 -193.48186  6.40%     -  482s
     0     0 -193.48558    0  318 -206.72161 -193.48558  6.40%     -  497s
     0     0 -193.48558    0  263 -206.72161 -193.48558  6.40%     -  545s
     0     0 -193.94088    0  268 -206.72161 -193.94088  6.18%     -  563s
     0     0 -194.09666    0  334 -206.72161 -194.09666  6.11%     -  573s
     0     0 -194.09805    0  333 -206.72161 -194.09805  6.11%     -  582s
     0     0 -194.09805    0  335 -206.72161 -194.09805  6.11%     -  627s
     0     0 -194.19235    0  339 -206.72161 -194.19235  6.06%     -  645s
     0     0 -194.27672    0  271 -206.72161 -194.27672  6.02%     -  659s
     0     0 -194.27672    0  282 -206.72161 -194.27672  6.02%     -  666s
     0     0 -194.97822    0  284 -206.72161 -194.97822  5.68%     -  683s
     0     0 -195.16108    0  341 -206.72161 -195.16108  5.59%     -  698s
     0     0 -195.16108    0  339 -206.72161 -195.16108  5.59%     -  707s
     0     0 -196.60742    0  275 -206.72161 -196.60742  4.89%     -  723s
     0     0 -196.60742    0  275 -206.72161 -196.60742  4.89%     -  736s
     0     0 -196.60742    0  276 -206.72161 -196.60742  4.89%     -  748s
     0     0 -196.60742    0  276 -206.72161 -196.60742  4.89%     -  761s
     0     0 -196.86396    0  268 -206.72161 -196.86396  4.77%     -  794s
     0     0 -197.36345    0  276 -206.72161 -197.36345  4.53%     -  814s
     0     0 -197.59146    0  281 -206.72161 -197.59146  4.42%     -  830s
     0     0 -197.66315    0  271 -206.72161 -197.66315  4.38%     -  841s
     0     0 -197.66315    0  274 -206.72161 -197.66315  4.38%     -  851s
     0     0 -197.89015    0  276 -206.72161 -197.89015  4.27%     -  863s
     0     0 -197.89015    0  276 -206.72161 -197.89015  4.27%     -  870s
     0     0 -197.89015    0  273 -206.72161 -197.89015  4.27%     -  880s
     0     0 -197.89015    0  279 -206.72161 -197.89015  4.27%     -  891s
     0     0 -197.89015    0  280 -206.72161 -197.89015  4.27%     -  901s
     0     0 -197.89015    0  270 -206.72161 -197.89015  4.27%     -  912s
     0     0 -197.89015    0  266 -206.72161 -197.89015  4.27%     -  972s
     0     0 -197.89015    0  266 -206.72161 -197.89015  4.27%     -  992s
     0     2 -197.90502    0  266 -206.72161 -197.90502  4.26%     - 1097s
     1     3 -197.91812    1  256 -206.72161 -197.91812  4.26%   268 1100s
     2     4 -199.13426    2  247 -206.72161 -197.92659  4.25%   508 1108s
     3     5 -199.98756    3  254 -206.72161 -197.92659  4.25%   468 1112s
     4     6 -200.76335    4  273 -206.72161 -197.92659  4.25%   434 1118s
     5     7 -200.86320    5  253 -206.72161 -197.92659  4.25%   394 1124s
     6     8 -201.20955    6  282 -206.72161 -197.92659  4.25%   365 1127s
     7     9 -201.28384    7  344 -206.72161 -197.92659  4.25%   354 1130s
     9    11 -202.86377    9  235 -206.72161 -197.92659  4.25%   353 1136s
    10    12 -204.13709    9  256 -206.72161 -197.92659  4.25%   428 1142s
    12    14 -202.86387   11  261 -206.72161 -197.92659  4.25%   368 1146s
    14    16 -202.91506   13  250 -206.72161 -197.92659  4.25%   338 1152s
    15    17 -202.91956   14  251 -206.72161 -197.92659  4.25%   316 1157s
    16    18 -202.93755   15  252 -206.72161 -197.92659  4.25%   298 1161s
    17    19 -202.95106   16  255 -206.72161 -197.92659  4.25%   281 1166s
    22    24 -205.18232   21  117 -206.72161 -197.92659  4.25%   227 1172s
    25    21     cutoff   22      -206.72161 -197.92659  4.25%   201 1175s
    26    20     cutoff    2      -206.72161 -197.93212  4.25%   444 1214s
    27    21 -206.38737    1   35 -206.72161 -199.19872  3.64%   532 1231s
    31    19     cutoff    3      -206.72161 -199.19872  3.64%   475 1235s
    32    18     cutoff    3      -206.72161 -200.24624  3.13%   490 1242s
    33    17     cutoff    4      -206.72161 -200.88441  2.82%   486 1245s
    39    11     cutoff   13      -206.72161 -202.95489  1.82%   424 1250s
    46     4     cutoff   10      -206.72161 -204.58748  1.03%   367 1255s

Cutting planes:
  Gomory: 3
  Zero half: 81

Explored 51 nodes (65284 simplex iterations) in 1258.30 seconds
Thread count was 1 (of 80 available processors)

Solution count 3: -206.722 -207.934 -14697.1 

Optimal solution found (tolerance 1.00e-04)
Best objective -2.067216082033e+02, best bound -2.067216082033e+02, gap 0.0000%
